networks/zoo_56_756/zoo_56_756.txt
Number of groups: 29
Flow 2: {1 7} {7 3} {3 31} 
Flow 17: {12 11} {11 18} {18 46} 
Flow 25: {1 2} {2 4} {4 26} {26 54} 
Flow 82: {2 1} {1 29} 
Flow 109: {21 3} {3 7} {7 1} 
Flow 123: {5 15} {15 21} {21 16} {16 44} 
Flow 131: {25 24} {24 52} 
Flow 157: {6 15} {15 25} {25 23} {23 51} 
Flow 164: {7 2} {2 30} 
Flow 169: {3 16} {16 22} {22 8} {8 36} 
Flow 193: {22 16} {16 3} {3 4} {4 32} 
Flow 195: {17 24} Flow 206: {8 17} {17 24} Flow 209: {17 23} {23 21} {21 49} 
Flow 237: {9 24} {24 17} {17 8} {8 22} {22 50} 
Flow 276: {10 9} {9 25} {25 15} {15 6} {6 34} 
Flow 334: {13 14} {14 10} {10 38} 
Flow 420: {15 43} 
Flow 444: {14 13} {13 12} {12 40} 
Flow 456: {24 25} {25 53} 
Flow 470: {18 11} {11 39} 
Flow 472: {11 12} {12 13} {13 41} 
Flow 503: {20 16} {16 21} {21 23} {23 17} {17 45} 
Flow 512: {28 27} {27 55} 
Flow 576: {8 17} {17 24} {24 9} {9 37} 
Flow 608: {23 25} {25 9} {9 10} {10 14} {14 42} 
Flow 621: {16 20} {20 19} {19 28} {28 56} 
Flow 694: {26 27} {27 28} {28 19} {19 47} 
Flow 707: {4 3} {3 21} {21 15} {15 5} {5 33} 
Flow 709: {27 26} {26 4} {4 2} {2 7} {7 35} 
Flow 722: {19 20} {20 48} 
Time taken running everything: 56 seconds
