networks/zoo_56_756/zoo_56_756.sol
<?xml version = "1.0" encoding="UTF-8" standalone="yes"?>
<CPLEXSolution version="1.2">
 <header
   problemName="networks/zoo_56_756/zoo_56_756.lp"
   solutionName="incumbent"
   solutionIndex="-1"
   objectiveValue="29"
   solutionTypeValue="3"
   solutionTypeString="primal"
   solutionStatusValue="101"
   solutionStatusString="integer optimal solution"
   solutionMethodString="mip"
   primalFeasible="1"
   dualFeasible="1"
   MIPNodes="1159"
   MIPIterations="94194"
   writeLevel="3"/>
 <quality
   epInt="1.0000000000000001e-05"
   epRHS="9.9999999999999995e-07"
   maxIntInfeas="0"
   maxPrimalInfeas="1.000000082740371e-09"
   maxX="4"
   maxSlack="10"/>
 <variables>
  <variable name="Y(1,2)" index="1" value="1"/>
  <variable name="Y(2,3)" index="58" value="1"/>
  <variable name="Y(5,6)" index="229" value="1"/>
  <variable name="Y(17,18)" index="913" value="1"/>
  <variable name="Y(23,24)" index="1255" value="1"/>
  <variable name="Y(33,7)" index="1798" value="1"/>
  <variable name="Y(130,23)" index="7246" value="1"/>
  <variable name="Y(150,16)" index="8359" value="1"/>
  <variable name="Y(162,28)" index="9043" value="1"/>
  <variable name="Y(188,27)" index="10498" value="1"/>
  <variable name="Y(194,5)" index="10812" value="1"/>
  <variable name="Y(197,9)" index="10984" value="1"/>
  <variable name="Y(209,21)" index="11668" value="1"/>
  <variable name="Y(264,22)" index="14749" value="1"/>
  <variable name="Y(390,12)" index="21795" value="1"/>
  <variable name="Y(409,4)" index="22851" value="1"/>
  <variable name="Y(470,11)" index="26274" value="1"/>
  <variable name="Y(472,13)" index="26388" value="1"/>
  <variable name="Y(473,14)" index="26445" value="1"/>
  <variable name="Y(483,25)" index="27016" value="1"/>
  <variable name="Y(604,10)" index="33777" value="1"/>
  <variable name="Y(641,20)" index="35859" value="1"/>
  <variable name="Y(649,1)" index="36288" value="1"/>
  <variable name="Y(683,8)" index="38199" value="1"/>
  <variable name="Y(694,19)" index="38826" value="1"/>
  <variable name="Y(703,2)" index="39313" value="1"/>
  <variable name="Y(719,17)" index="40224" value="1"/>
  <variable name="Y(744,15)" index="41622" value="1"/>
  <variable name="Y(755,26)" index="42249" value="1"/>
  <variable name="X(1,2,1)" index="42336" value="1"/>
  <variable name="X(1,7,2)" index="43093" value="1"/>
  <variable name="X(1,29,649)" index="44496" value="1"/>
  <variable name="X(2,1,703)" index="45306" value="1"/>
  <variable name="X(2,4,188)" index="45547" value="1"/>
  <variable name="X(2,7,33)" index="46148" value="1"/>
  <variable name="X(2,30,1)" index="46872" value="1"/>
  <variable name="X(3,4,409)" index="48036" value="1"/>
  <variable name="X(3,7,649)" index="49032" value="1"/>
  <variable name="X(3,16,683)" index="49822" value="1"/>
  <variable name="X(3,21,719)" index="50614" value="1"/>
  <variable name="X(3,31,2)" index="50653" value="1"/>
  <variable name="X(4,2,703)" index="52110" value="1"/>
  <variable name="X(4,3,719)" index="52882" value="1"/>
  <variable name="X(4,26,188)" index="53107" value="1"/>
  <variable name="X(4,32,409)" index="54084" value="1"/>
  <variable name="X(5,15,130)" index="54561" value="1"/>
  <variable name="X(5,33,194)" index="55381" value="1"/>
  <variable name="X(6,15,150)" index="56093" value="1"/>
  <variable name="X(6,34,5)" index="56704" value="1"/>
  <variable name="X(7,1,649)" index="58104" value="1"/>
  <variable name="X(7,2,188)" index="58399" value="1"/>
  <variable name="X(7,3,2)" index="58969" value="1"/>
  <variable name="X(7,35,33)" index="59756" value="1"/>
  <variable name="X(8,17,197)" index="60676" value="1"/>
  <variable name="X(8,22,264)" index="61499" value="1"/>
  <variable name="X(8,36,683)" index="62674" value="1"/>
  <variable name="X(9,10,604)" index="63351" value="1"/>
  <variable name="X(9,24,264)" index="63767" value="1"/>
  <variable name="X(9,25,483)" index="64742" value="1"/>
  <variable name="X(9,37,197)" index="65212" value="1"/>
  <variable name="X(10,9,483)" index="66254" value="1"/>
  <variable name="X(10,14,390)" index="66917" value="1"/>
  <variable name="X(10,38,604)" index="67887" value="1"/>
  <variable name="X(11,12,472)" index="68511" value="1"/>
  <variable name="X(11,18,17)" index="68812" value="1"/>
  <variable name="X(11,39,470)" index="70021" value="1"/>
  <variable name="X(12,11,17)" index="70324" value="1"/>
  <variable name="X(12,13,472)" index="71535" value="1"/>
  <variable name="X(12,40,390)" index="72209" value="1"/>
  <variable name="X(13,12,390)" index="72965" value="1"/>
  <variable name="X(13,14,473)" index="73804" value="1"/>
  <variable name="X(13,41,472)" index="74559" value="1"/>
  <variable name="X(14,10,483)" index="75326" value="1"/>
  <variable name="X(14,13,390)" index="75989" value="1"/>
  <variable name="X(14,42,473)" index="76828" value="1"/>
  <variable name="X(15,5,194)" index="77305" value="1"/>
  <variable name="X(15,6,5)" index="77872" value="1"/>
  <variable name="X(15,21,150)" index="78773" value="1"/>
  <variable name="X(15,25,130)" index="79509" value="1"/>
  <variable name="X(15,43,744)" index="80879" value="1"/>
  <variable name="X(16,3,409)" index="81300" value="1"/>
  <variable name="X(16,20,641)" index="82288" value="1"/>
  <variable name="X(16,21,744)" index="83147" value="1"/>
  <variable name="X(16,22,683)" index="83842" value="1"/>
  <variable name="X(16,44,150)" index="84065" value="1"/>
  <variable name="X(17,8,264)" index="84935" value="1"/>
  <variable name="X(17,23,209)" index="85636" value="1"/>
  <variable name="X(17,24,197)" index="86380" value="1"/>
  <variable name="X(17,45,719)" index="87658" value="1"/>
  <variable name="X(18,11,470)" index="88165" value="1"/>
  <variable name="X(18,46,17)" index="88468" value="1"/>
  <variable name="X(19,20,744)" index="89951" value="1"/>
  <variable name="X(19,28,162)" index="90125" value="1"/>
  <variable name="X(19,47,694)" index="91413" value="1"/>
  <variable name="X(20,16,744)" index="92219" value="1"/>
  <variable name="X(20,19,162)" index="92393" value="1"/>
  <variable name="X(20,48,641)" index="93628" value="1"/>
  <variable name="X(21,3,649)" index="94392" value="1"/>
  <variable name="X(21,15,744)" index="95243" value="1"/>
  <variable name="X(21,16,150)" index="95405" value="1"/>
  <variable name="X(21,23,719)" index="96730" value="1"/>
  <variable name="X(21,49,209)" index="96976" value="1"/>
  <variable name="X(22,8,683)" index="98206" value="1"/>
  <variable name="X(22,16,641)" index="98920" value="1"/>
  <variable name="X(22,50,264)" index="99299" value="1"/>
  <variable name="X(23,17,719)" index="100510" value="1"/>
  <variable name="X(23,21,209)" index="100756" value="1"/>
  <variable name="X(23,25,604)" index="101907" value="1"/>
  <variable name="X(23,51,130)" index="102189" value="1"/>
  <variable name="X(24,9,197)" index="103012" value="1"/>
  <variable name="X(24,17,264)" index="103835" value="1"/>
  <variable name="X(24,25,194)" index="104521" value="1"/>
  <variable name="X(24,52,23)" index="105106" value="1"/>
  <variable name="X(25,9,604)" index="106443" value="1"/>
  <variable name="X(25,15,194)" index="106789" value="1"/>
  <variable name="X(25,23,130)" index="107481" value="1"/>
  <variable name="X(25,24,23)" index="108130" value="1"/>
  <variable name="X(25,53,483)" index="109346" value="1"/>
  <variable name="X(26,4,703)" index="110322" value="1"/>
  <variable name="X(26,27,188)" index="110563" value="1"/>
  <variable name="X(26,54,755)" index="111886" value="1"/>
  <variable name="X(27,26,755)" index="112642" value="1"/>
  <variable name="X(27,28,694)" index="113337" value="1"/>
  <variable name="X(27,55,188)" index="113587" value="1"/>
  <variable name="X(28,19,694)" index="114849" value="1"/>
  <variable name="X(28,27,755)" index="115666" value="1"/>
  <variable name="X(28,56,162)" index="115829" value="1"/>
  <variable name="C(1,2)" index="116425" value="1"/>
  <variable name="C(2,7)" index="116427" value="1"/>
  <variable name="C(2,3)" index="116428" value="2"/>
  <variable name="C(5,6)" index="116443" value="1"/>
  <variable name="C(17,11)" index="116535" value="1"/>
  <variable name="C(17,18)" index="116536" value="2"/>
  <variable name="C(23,24)" index="116568" value="1"/>
  <variable name="C(33,2)" index="116609" value="3"/>
  <variable name="C(33,7)" index="116610" value="4"/>
  <variable name="C(130,15)" index="117130" value="1"/>
  <variable name="C(130,25)" index="117131" value="2"/>
  <variable name="C(130,23)" index="117132" value="3"/>
  <variable name="C(150,15)" index="117237" value="1"/>
  <variable name="C(150,21)" index="117238" value="2"/>
  <variable name="C(150,16)" index="117239" value="3"/>
  <variable name="C(162,19)" index="117303" value="1.0000000010000001"/>
  <variable name="C(162,28)" index="117304" value="2.0000000010000001"/>
  <variable name="C(188,2)" index="117440" value="1"/>
  <variable name="C(188,4)" index="117441" value="2"/>
  <variable name="C(188,26)" index="117442" value="3"/>
  <variable name="C(188,27)" index="117443" value="4"/>
  <variable name="C(194,25)" index="117474" value="1"/>
  <variable name="C(194,15)" index="117475" value="2"/>
  <variable name="C(194,5)" index="117476" value="3"/>
  <variable name="C(197,8)" index="117488" value="1.0000000000000013"/>
  <variable name="C(197,17)" index="117489" value="2.0000000000000013"/>
  <variable name="C(197,24)" index="117490" value="3.0000000000000013"/>
  <variable name="C(197,9)" index="117491" value="4"/>
  <variable name="C(209,23)" index="117558" value="1"/>
  <variable name="C(209,21)" index="117559" value="2"/>
  <variable name="C(264,24)" index="117833" value="1"/>
  <variable name="C(264,17)" index="117834" value="2"/>
  <variable name="C(264,8)" index="117835" value="3"/>
  <variable name="C(264,22)" index="117836" value="4"/>
  <variable name="C(390,14)" index="118718" value="1"/>
  <variable name="C(390,13)" index="118719" value="2"/>
  <variable name="C(390,12)" index="118720" value="3"/>
  <variable name="C(409,3)" index="118799" value="1"/>
  <variable name="C(409,4)" index="118800" value="2"/>
  <variable name="C(470,11)" index="119149" value="1"/>
  <variable name="C(472,12)" index="119155" value="1"/>
  <variable name="C(472,13)" index="119156" value="2"/>
  <variable name="C(473,14)" index="119161" value="1"/>
  <variable name="C(483,10)" index="119259" value="1"/>
  <variable name="C(483,9)" index="119260" value="2"/>
  <variable name="C(483,25)" index="119261" value="3"/>
  <variable name="C(604,25)" index="119899" value="1"/>
  <variable name="C(604,9)" index="119900" value="2"/>
  <variable name="C(604,10)" index="119901" value="3"/>
  <variable name="C(641,16)" index="120080" value="1"/>
  <variable name="C(641,20)" index="120081" value="2"/>
  <variable name="C(649,3)" index="120121" value="1"/>
  <variable name="C(649,7)" index="120122" value="2"/>
  <variable name="C(649,1)" index="120123" value="3"/>
  <variable name="C(683,16)" index="120272" value="1"/>
  <variable name="C(683,22)" index="120273" value="2"/>
  <variable name="C(683,8)" index="120274" value="3"/>
  <variable name="C(694,28)" index="120362" value="1"/>
  <variable name="C(694,19)" index="120363" value="2"/>
  <variable name="C(703,4)" index="120403" value="1"/>
  <variable name="C(703,2)" index="120404" value="2"/>
  <variable name="C(719,3)" index="120520" value="1"/>
  <variable name="C(719,21)" index="120521" value="2"/>
  <variable name="C(719,23)" index="120522" value="3"/>
  <variable name="C(719,17)" index="120523" value="4"/>
  <variable name="C(744,20)" index="120692" value="1"/>
  <variable name="C(744,16)" index="120693" value="2"/>
  <variable name="C(744,21)" index="120694" value="3"/>
  <variable name="C(744,15)" index="120695" value="4"/>
  <variable name="C(755,27)" index="120758" value="1"/>
  <variable name="C(755,26)" index="120759" value="2"/>
 </variables>
</CPLEXSolution>
